M 28 71 23 38 94 91 60 10 22 
29 M 43 57 88 48 90 63 27 81 
73 12 M 15 94 17 15 39 44 36 
23 17 84 M 90 93 82 98 74 80 
45 72 18 31 M 80 17 15 63 28 
72 43 84 15 76 M 93 56 17 46 
72 97 70 39 95 66 M 17 97 27 
93 79 15 53 90 87 40 M 50 62 
30 11 74 14 78 51 62 27 M 14 
43 95 95 47 92 73 70 48 78 M 
